c --- [ banner ] -------------------------------------------------------------
c 
c CaDiCaL Radically Simplified CDCL SAT Solver
c Copyright (c) 2016-2021 A. Biere, M. Fleury, N. Froleyks
c 
c Version 1.5.2 9c38a080b32c28d805e8e6ca21849856b0cda605
c g++ (Ubuntu 7.5.0-3ubuntu1~18.04) 7.5.0 -Wall -Wextra -O3 -DNDEBUG
c Wed Feb 16 23:15:36 EST 2022 Linux fac-vanhoeve01 5.4.0-99-generic x86_64
c 
c --- [ parsing input ] ------------------------------------------------------
c 
c reading DIMACS file from '<stdin>' (use '-h' for a list of common options)
c found 'p cnf 2692 7976' header
c parsed 7976 clauses in 0.00 seconds process time
c disconnecting from '<stdin>'
c after reading 106558 bytes 0.1 MB
c 
c --- [ options ] ------------------------------------------------------------
c 
c all options are set to their default value
c 
c --- [ solving ] ------------------------------------------------------------
c 
c time measured in process time since initialization
c 
c  seconds  reductions  redundant irredundant
c         MB    restarts       trail    variables
c          level   conflicts       glue      remaining
c 
c *  0.00  5  0 0   0    0    0  0% 0 7974 2618 97%
c {  0.01  5  0 0   0    0    0  0% 0 7974 2618 97%
c -  0.02  5 101 1  15  300  281 71% 8 7902 2618 97%
c -  0.06  6 52 2  79  904  745 82% 8 7902 2618 97%
c }  0.06  6 50 2 103 1000  840 82% 9 7902 2618 97%
c [  0.06  6  0 2 103 1000  840  0% 0 7902 2618 97%
c O  0.06  6 15 2 103 1002  842 72% 8 7902 2618 97%
c -  0.11  6 15 3 103 1805  979 93% 12 7902 2618 97%
c ]  0.17  6 15 3 104 3002 1808 93% 12 7902 2618 97%
c {  0.17  6 50 3 104 3002 1808 82% 9 7902 2618 97%
c F  0.17  6 50 3 105 3003 1809 82% 9 7902 2618 97%
c -  0.17  6 49 4 105 3006 1274 82% 9 7902 2618 97%
c s  0.19  6 45 4 125 3215 1457 83% 9 7902 2618 97%
c e  0.21  6 45 4 125 3215   89 83% 9 5685 885 33%
c s  0.21  6 45 4 125 3215   87 83% 9 5685 885 33%
c -  0.27  6 32 5 245 4507 1234 78% 9 5685 885 33%
c 2  0.30  6 30 5 293 5000 1670 79% 9 5685 885 33%
c p  0.30  6 30 5 293 5000 1737 79% 9 5685 880 33%
c #  0.34  6 26 5 337 6008 2578 78% 9 5685 880 33%
c -  0.35  6 26 6 342 6307 2135 79% 9 5670 880 33%
c 
c  seconds  reductions  redundant irredundant
c         MB    restarts       trail    variables
c          level   conflicts       glue     remaining
c 
c }  0.38  6 24 6 342 7002 2778 80% 9 5670 880 33%
c [  0.38  6 15 6 342 7002 2778 282% 12 5670 880 33%
c -  0.45  7 15 7 343 8408 2824 201% 11 5670 880 33%
c I  0.53  7 18 7 344 10009 4289 164% 12 5670 880 33%
c -  0.58  7 20 8 345 10808 3425 153% 13 5670 880 33%
c -  0.74  7 21 9 347 13508 3742 132% 15 5670 880 33%
c s  0.77  7 22 9 347 13950 4050 130% 15 5663 880 33%
c w  0.78  7 22 9 347 13950 4047 130% 15 5663 880 33%
c s  0.79  7 22 9 347 13950 4043 130% 15 5663 880 33%
c ^  0.79  7 22 9 347 13950 4043 130% 15 5663 880 33%
c ]  0.85  7 22 9 347 15002 4923 125% 16 5663 880 33%
c {  0.85  7 24 9 347 15002 4923 80% 9 5663 880 33%
c p  0.86  7 24 9 347 15002 4935 80% 9 5663 880 33%
c B  0.86  7 24 9 347 15013 4946 80% 9 5663 880 33%
c -  0.94  7 24 10 546 16509 4382 81% 9 5663 880 33%
c -  1.09  6 22 11 825 19810 4621 80% 9 5663 880 33%
c W  1.16  6 22 11 924 21015 5728 81% 9 5663 880 33%
c -  1.28  7 21 12 1149 23414 5279 81% 9 5663 880 33%
c -  1.47  7 21 13 1513 27315 6023 82% 10 5663 880 33%
c F  1.51  7 21 13 1570 28018 6635 81% 10 5663 880 33%
c 
c  seconds  reductions     redundant  irredundant
c         MB     restarts         trail     variables
c          level      conflicts       glue      remaining
c 
c p  1.61  7 21 13 1684 30002 8488 82% 10 5663 880 33%
c s  1.62  7 21 13 1688 30069 8536 82% 10 5663 880 33%
c w  1.64  7 21 13 1688 30069 8533 82% 10 5663 880 33%
c s  1.65  7 21 13 1688 30069 8529 82% 10 5663 880 33%
c ^  1.66  7 21 13 1688 30069 8529 82% 10 5663 880 33%
c }  1.70  7 21 13 1733 31005 9402 82% 10 5663 880 33%
c [  1.70  7 22 13 1733 31005 9402 125% 16 5663 880 33%
c -  1.73  7 21 14 1733 31516 6594 123% 15 5663 880 33%
c -  1.97  8 24 15 1736 36016 6515 112% 16 5663 880 33%
c B  1.97  8 24 15 1736 36020 6519 112% 17 5663 880 33%
c -  2.25  8 30 16 1739 40816 6780 106% 19 5663 880 33%
c W  2.52  8 31 16 1740 45022 10491 103% 20 5663 880 33%
c -  2.58  8 31 17 1740 45916 7099 102% 20 5663 880 33%
c p  2.86  8 31 17 1741 50003 10532 100% 21 5663 880 33%
c -  2.96  8 31 18 1741 51316 7440 100% 21 5663 880 33%
c s  2.98  8 31 18 1741 51557 7600 100% 21 5663 880 33%
c s  3.00  8 31 18 1741 51557 7600 100% 21 5663 880 33%
c ^  3.00  8 31 18 1741 51557 7600 100% 21 5663 880 33%
c O  3.23  8 31 18 1742 55024 10356 98% 21 5663 880 33%
c -  3.34  8 31 19 1744 57018 7294 98% 21 5663 880 33%
c 
c  seconds  reductions      redundant  irredundant
c         MB     restarts          trail     variables
c          level      conflicts        glue      remaining
c 
c ]  3.67  8 30 19 1748 63005 11730 96% 20 5663 880 33%
c {  3.67  8 21 19 1748 63005 11730 82% 10 5663 880 33%
c -  3.67  8 21 20 1750 63020 7221 82% 10 5663 880 33%
c B  3.81  8 20 20 1903 66026 9945 82% 10 5663 880 33%
c -  3.98  8 20 21 2142 69325 8601 82% 10 5663 880 33%
c p  4.28  8 20 21 2516 75003 13777 83% 10 5663 880 33%
c -  4.34  8 20 22 2555 75926 9926 83% 10 5663 880 33%
c W  4.46  8 20 22 2662 78030 11770 83% 10 5663 880 33%
c s  4.50  8 20 22 2726 78418 12104 83% 10 5663 880 33%
c v  4.51  8 20 22 2726 78418 12104 83% 10 5663 880 33%
c e  4.53  8 20 22 2726 78418 12104 83% 10 5669 878 33%
c s  4.55  8 20 22 2726 78418 12104 83% 10 5669 878 33%
c ^  4.55  8 20 22 2726 78418 12104 83% 10 5669 878 33%
c -  4.80  9 20 23 3138 82829 11079 83% 10 5669 878 33%
c -  5.20 10 19 24 3583 90029 11501 83% 10 5669 878 33%
c #  5.25 10 19 24 3616 91031 12404 83% 10 5669 878 33%
c -  5.63 10 19 25 4162 97529 12273 83% 10 5669 878 33%
c p  6.06 10 19 25 4431 105003 19245 84% 10 5669 878 33%
c B  6.07 10 19 25 4431 105033 19274 84% 10 5669 878 33%
c -  6.10 10 19 26 4469 105329 13008 84% 10 5669 878 33%
c 
c  seconds  reductions       redundant  irredundant
c         MB     restarts           trail     variables
c          level      conflicts         glue      remaining
c 
c s  6.41 10 19 26 4727 110711 17786 84% 10 5669 878 33%
c w  6.44 10 19 26 4727 110711 17785 84% 10 5669 878 33%
c e  6.45 10 19 26 4727 110711 3825 84% 10 8079 564 21%
c s  6.47 10 19 26 4727 110711 3825 84% 10 8079 564 21%
c ^  6.47 10 19 26 4727 110711 3825 84% 10 8079 564 21%
c -  6.57  8 19 27 4752 113429 5002 63% 10 8079 564 21%
c W  6.94  8 19 27 5163 120037 10950 78% 10 8079 564 21%
c -  7.05  9 19 28 5371 121829 10344 78% 10 8079 564 21%
c }  7.32  9 19 28 5780 127007 15113 79% 10 8079 564 21%
c [  7.32  9 30 28 5780 127007 15113 151% 20 8079 564 21%
c -  7.49 10 28 29 5780 130530 12523 145% 19 8079 564 21%
c B  7.77 10 26 29 5785 136038 16455 137% 18 8079 564 21%
c -  7.98 10 27 30 5787 139531 12535 133% 19 8079 564 21%
c p  8.01 10 27 30 5787 140003 12969 132% 19 8079 564 21%
c -  8.58 10 27 31 5788 148831 12887 124% 18 8079 564 21%
c W  8.90 10 27 31 5789 153039 16425 121% 18 8079 564 21%
c -  9.24 10 28 32 5789 158433 13292 118% 19 8079 564 21%
c s  9.65 10 30 32 5789 164479 18831 115% 20 8079 564 21%
c s  9.71 10 30 32 5789 164479 18829 115% 20 8079 564 21%
c - 10.03 11 30 33 5790 168334 14527 113% 20 8079 564 21%
c 
c  seconds  reductions       redundant   irredundant
c         MB     restarts           trail      variables
c          level      conflicts          glue      remaining
c 
c I 10.21 11 30 33 5792 171040 16972 112% 20 8079 564 21%
c - 10.76 11 31 34 5796 178535 14610 109% 20 8079 564 21%
c p 10.87 11 31 34 5796 180003 15958 109% 20 8079 564 21%
c - 11.57 11 31 35 5803 189036 14593 106% 21 8079 564 21%
c B 11.66 11 31 35 5803 190041 15368 106% 21 8079 564 21%
c - 12.31 13 32 36 5804 199836 14974 103% 21 8079 564 21%
c W 13.15 13 32 36 5811 210044 23327 101% 22 8079 564 21%
c - 13.25 15 32 37 5811 210937 15446 101% 22 8079 564 21%
c - 14.07 15 31 38 5818 222337 15859 99% 21 8079 564 21%
c p 14.26 15 31 38 5818 225003 18276 99% 21 8079 564 21%
c O 14.71 15 30 38 5819 231047 23270 98% 21 8079 564 21%
c - 14.91 15 30 39 5819 234037 15910 97% 21 8079 564 21%
c - 15.62 11 29 40 5820 246037 15803 96% 20 8079 564 21%
c B 16.05 11 28 40 5821 253048 21359 95% 19 8079 564 21%
c ] 16.18 11 28 40 5821 255009 23160 95% 19 8079 564 21%
c { 16.18 11 19 40 5821 255009 23160 79% 10 8079 564 21%
c - 16.37 13 19 41 5967 258338 16856 79% 10 8079 564 21%
c - 17.13 13 18 42 6976 270938 18030 77% 10 8079 564 21%
c p 17.40 13 18 42 7405 275003 21731 77% 10 8079 564 21%
c F 17.46 13 18 42 7426 276049 22661 78% 10 8079 564 21%
c 
c  seconds  reductions       redundant  irredundant
c         MB     restarts           trail     variables
c          level      conflicts         glue      remaining
c 
c - 17.95 13 18 43 7897 283839 20330 79% 10 8079 564 21%
c - 18.78 14 18 44 8691 297040 21294 79% 10 8079 564 21%
c B 18.95 14 18 44 8783 300050 24008 79% 10 8079 564 21%
c - 19.71 16 18 45 9783 310544 22599 80% 10 8079 564 21%
c - 20.62 16 18 46 10673 324345 22959 80% 10 8079 564 21%
c W 20.76 16 18 46 10743 325051 23609 80% 10 8079 564 21%
c p 21.11 16 18 46 11241 330005 28269 80% 10 8079 564 21%
c - 21.76 16 18 47 11876 338445 24044 80% 10 8079 564 21%
c # 22.69 16 18 47 12978 351052 35544 80% 10 8079 564 21%
c - 22.87 17 18 48 13165 352845 25127 80% 10 8079 564 21%
c - 24.07 17 19 49 14651 367545 25979 81% 10 8079 564 21%
c B 24.71 17 18 49 15131 378054 34466 79% 10 8079 564 21%
c - 25.13 17 18 50 15689 382547 25484 80% 10 8079 564 21%
c p 25.65 17 18 50 16156 390006 32128 79% 10 8079 562 21%
c s 25.71 17 18 50 16156 390006 32024 79% 10 8079 562 21%
c v 25.74 17 18 50 16156 390006 32024 79% 10 8057 562 21%
c w 25.78 17 18 50 16156 390006 32011 79% 10 8057 562 21%
c s 25.85 17 18 50 16156 390006 32004 79% 10 8047 562 21%
c - 26.52 13 18 51 16937 397851 27387 80% 10 8047 562 21%
c W 27.23 13 18 51 17534 406059 34787 80% 10 8047 562 21%
c 
c  seconds  reductions        redundant  irredundant
c         MB      restarts           trail     variables
c          level       conflicts         glue      remaining
c 
c - 27.83 13 18 52 18118 413451 27769 80% 10 8047 562 21%
c - 29.04 13 18 53 19335 429352 28815 80% 10 8047 562 21%
c F 29.44 13 18 53 19806 435060 33571 80% 10 8047 562 21%
c - 30.26 14 18 54 20445 445552 29029 81% 10 8047 562 21%
c p 30.97 14 18 54 21137 455006 37682 80% 10 8047 562 21%
c s 31.37 14 18 54 21446 459123 41402 81% 10 8047 562 21%
c w 31.43 14 18 54 21446 459123 41399 81% 10 8047 562 21%
c s 31.51 14 18 54 21446 459123 41396 81% 10 8047 562 21%
c - 31.78 14 18 55 21616 462054 30361 81% 10 8047 562 21%
c B 32.00 14 18 55 21832 465062 32864 81% 10 8047 562 21%
c - 33.15 14 18 56 22864 478856 30850 81% 10 8047 562 21%
c - 34.68 14 18 57 24594 495956 32361 81% 10 8047 562 21%
c W 34.82 14 18 57 24607 496063 32445 81% 10 8047 562 21%
c } 36.03 14 18 57 25576 511012 45718 80% 10 8047 562 21%
c [ 36.03 14 28 57 25576 511012 45718 95% 19 8047 562 21%
c - 36.21 14 28 58 25576 513357 32667 94% 19 8047 562 21%
c p 36.99 14 27 58 25576 525007 43214 94% 18 8047 562 21%
c W 37.40 14 27 58 25576 528065 46098 94% 19 8047 562 21%
c - 37.66 15 27 59 25576 531058 32898 93% 19 8047 562 21%
c - 39.07 14 27 60 25583 549064 28649 92% 19 8047 562 21%
c 
c  seconds  reductions        redundant  irredundant
c         MB      restarts           trail     variables
c          level       conflicts         glue      remaining
c 
c I 39.99 14 27 60 25589 561066 37610 91% 19 8047 562 21%
c - 40.48 14 27 61 25591 567365 27992 91% 19 8047 562 21%
c - 41.90 17 26 62 25598 585966 28858 90% 19 8047 562 21%
c B 42.57 17 26 62 25605 595068 36280 90% 19 8047 562 21%
c p 42.98 17 27 62 25606 600007 40828 90% 19 8047 562 21%
c - 43.37 19 27 63 25606 604869 29230 90% 19 8047 562 21%
c - 44.88 19 26 64 25608 624070 28673 90% 19 8047 562 21%
c W 45.50 19 26 64 25613 630074 32996 89% 19 8047 562 21%
c - 46.74 19 26 65 25620 643572 27694 89% 19 8047 562 21%
c - 48.35 19 26 66 25628 663372 29675 89% 19 8047 562 21%
c O 48.56 19 26 66 25629 666075 31887 89% 19 8047 562 21%
c p 49.49 19 26 66 25636 680007 43116 88% 19 8047 562 21%
c - 49.78 19 26 67 25637 683474 30167 88% 19 8047 562 21%
c B 51.18 19 25 67 25638 703078 46389 88% 19 8047 562 21%
c - 51.27 19 25 68 25638 703874 31124 88% 19 8047 562 21%
c - 52.96 19 25 69 25639 724574 31169 88% 19 8047 562 21%
c W 54.57 19 25 69 25640 741079 45362 88% 19 8047 562 21%
c - 55.11 15 25 70 25640 745574 32484 88% 19 8047 562 21%
c p 56.80 15 25 70 25640 765009 48841 87% 18 8047 562 21%
c - 57.03 15 25 71 25640 766874 32656 87% 19 8047 562 21%
c 
c  seconds  reductions        redundant  irredundant
c         MB      restarts           trail     variables
c          level       conflicts         glue      remaining
c 
c I 58.29 15 25 71 25640 780080 42611 87% 18 8047 562 21%
c - 58.97 16 26 72 25640 788476 34480 87% 18 8047 562 21%
c - 60.99 18 28 73 25643 810378 36802 88% 18 8047 562 21%
c B 61.77 18 27 73 25649 820082 44348 88% 18 8047 562 21%
c - 62.85 17 27 74 25655 832578 35697 88% 18 8047 562 21%
c p 65.14 17 27 74 25665 855009 54550 88% 19 8047 562 21%
c - 65.21 20 27 75 25665 855079 34983 88% 19 8047 562 21%
c s 65.27 20 27 75 25665 855079 34935 88% 19 8047 562 21%
c w 65.38 20 27 75 25665 855079 34923 88% 19 8047 562 21%
c ] 65.99 20 27 75 25669 861083 39545 88% 19 8047 562 21%
c 1 65.99 20 27 75 25669 861083 39545 88% 19 8047 562 21%
c 
c --- [ result ] -------------------------------------------------------------
c 
s SATISFIABLE
v 1 -2 -3 -4 -5 -6 -7 8 -9 10 -11 -12 -13 -14 -15 16 -17 -18 -19 -20 -21 -22
v -23 24 -25 -26 27 -28 29 -30 -31 -32 33 -34 -35 -36 -37 -38 -39 -40 -41 -42
v -43 -44 -45 -46 -47 -48 -49 -50 -51 -52 53 54 -55 56 -57 -58 59 -60 -61 -62
v 63 -64 -65 -66 -67 -68 -69 -70 -71 -72 -73 -74 -75 -76 -77 -78 -79 -80 -81
v -82 -83 84 85 -86 -87 -88 -89 -90 -91 -92 -93 -94 -95 -96 97 -98 -99 100 101
v -102 -103 -104 -105 -106 -107 -108 -109 -110 -111 -112 113 -114 -115 -116
v 117 -118 -119 -120 121 -122 -123 124 -125 -126 -127 128 -129 -130 -131 -132
v -133 -134 -135 -136 137 -138 -139 -140 -141 -142 -143 -144 -145 -146 147 148
v -149 -150 151 -152 153 -154 -155 -156 -157 -158 -159 -160 -161 -162 -163 164
v -165 -166 167 -168 -169 -170 -171 -172 173 -174 175 -176 177 -178 179 180
v -181 -182 -183 -184 -185 -186 -187 -188 -189 -190 -191 -192 -193 -194 -195
v -196 -197 -198 -199 -200 -201 -202 -203 -204 -205 -206 -207 -208 -209 -210
v -211 -212 -213 -214 215 216 -217 -218 -219 -220 -221 -222 -223 -224 -225 226
v -227 228 -229 -230 -231 232 -233 -234 -235 -236 -237 -238 -239 -240 241 242
v -243 -244 -245 -246 -247 -248 249 -250 -251 252 253 -254 -255 256 257 -258
v -259 260 261 -262 -263 264 265 -266 267 -268 -269 -270 271 -272 -273 -274
v -275 -276 -277 278 -279 280 281 282 -283 -284 -285 -286 -287 -288 -289 -290
v -291 292 293 294 295 -296 -297 298 -299 -300 -301 302 -303 -304 -305 306
v -307 308 309 310 -311 -312 313 -314 315 316 -317 318 -319 -320 -321 322 323
v 324 -325 326 327 328 329 330 331 332 333 334 335 336 337 338 339 340 341 342
v 343 344 345 346 347 348 349 350 351 352 353 354 355 356 357 358 359 360 361
v 362 363 364 365 366 367 368 369 370 371 372 373 374 375 376 377 378 379 380
v 381 382 383 384 385 386 387 388 389 390 391 392 393 394 395 396 397 398 -399
v -400 401 402 403 404 405 406 407 408 409 410 411 412 413 414 415 416 417 418
v 419 420 421 422 423 424 425 426 427 428 429 430 431 432 433 434 435 436 437
v 438 439 440 441 442 443 444 445 446 447 448 449 450 451 452 453 454 455 456
v 457 458 459 460 461 462 463 464 465 466 467 468 469 470 471 472 -473 -474
v -475 -476 -477 478 479 480 481 482 483 484 485 486 487 488 489 490 491 492
v 493 494 495 496 497 498 499 500 501 502 503 504 505 506 507 508 509 510 511
v 512 513 514 515 516 517 518 519 520 521 522 523 524 525 526 527 528 529 530
v 531 532 533 534 535 536 537 538 539 540 541 542 543 544 545 546 -547 -548
v -549 -550 -551 -552 553 554 555 556 557 558 559 560 561 562 563 564 565 566
v 567 568 569 570 571 572 573 574 575 576 577 578 579 580 581 582 583 584 585
v 586 587 588 589 590 591 592 593 594 595 596 597 598 599 600 601 602 603 604
v 605 606 607 608 609 610 611 612 613 614 615 616 617 618 619 620 -621 -622
v -623 -624 -625 -626 -627 -628 -629 630 631 632 633 634 635 636 637 638 639
v 640 641 642 643 644 645 646 647 648 649 650 651 652 653 654 655 656 657 658
v 659 660 661 662 663 664 665 666 667 668 669 670 671 672 673 674 675 676 677
v 678 679 680 681 682 683 684 685 686 687 688 689 690 691 692 693 694 -695
v -696 -697 -698 -699 -700 -701 -702 -703 -704 705 706 707 708 709 710 711 712
v 713 714 715 716 717 718 719 720 721 722 723 724 725 726 727 728 729 730 731
v 732 733 734 735 736 737 738 739 740 741 742 743 744 745 746 747 748 749 750
v 751 752 753 754 755 756 757 758 759 760 761 762 763 764 765 766 767 768 -769
v -770 -771 -772 -773 -774 -775 -776 -777 -778 -779 -780 -781 782 783 784 785
v 786 787 788 789 790 791 792 793 794 795 796 797 798 799 800 801 802 803 804
v 805 806 807 808 809 810 811 812 813 814 815 816 817 818 819 820 821 822 823
v 824 825 826 827 828 829 830 831 832 833 834 835 836 837 838 839 840 841 842
v -843 -844 -845 -846 -847 -848 -849 -850 -851 -852 -853 -854 -855 -856 857
v 858 859 860 861 862 863 864 865 866 867 868 869 870 871 872 873 874 875 876
v 877 878 879 880 881 882 883 884 885 886 887 888 889 890 891 892 893 894 895
v 896 897 898 899 900 901 902 903 904 905 906 907 908 909 910 911 912 913 914
v 915 916 -917 -918 -919 -920 -921 -922 -923 -924 -925 -926 -927 -928 -929
v -930 -931 -932 933 934 935 936 937 938 939 940 941 942 943 944 945 946 947
v 948 949 950 951 952 953 954 955 956 957 958 959 960 961 962 963 964 965 966
v 967 968 969 970 971 972 973 974 975 976 977 978 979 980 981 982 983 984 985
v 986 987 988 989 990 -991 -992 -993 -994 -995 -996 -997 -998 -999 -1000 -1001
v -1002 -1003 -1004 -1005 -1006 -1007 -1008 -1009 -1010 1011 1012 1013 1014
v 1015 1016 1017 1018 1019 1020 1021 1022 1023 1024 1025 1026 1027 1028 1029
v 1030 1031 1032 1033 1034 1035 1036 1037 1038 1039 1040 1041 1042 1043 1044
v 1045 1046 1047 1048 1049 1050 1051 1052 1053 1054 1055 1056 1057 1058 1059
v 1060 1061 1062 1063 1064 -1065 -1066 -1067 -1068 -1069 -1070 -1071 -1072
v -1073 -1074 -1075 -1076 -1077 -1078 -1079 -1080 -1081 -1082 -1083 -1084
v -1085 -1086 -1087 -1088 -1089 -1090 -1091 1092 1093 1094 1095 1096 1097 1098
v 1099 1100 1101 1102 1103 1104 1105 1106 1107 1108 1109 1110 1111 1112 1113
v 1114 1115 1116 1117 1118 1119 1120 1121 1122 1123 1124 1125 1126 1127 1128
v 1129 1130 1131 1132 1133 1134 1135 1136 1137 1138 -1139 -1140 -1141 -1142
v -1143 -1144 -1145 -1146 -1147 -1148 -1149 -1150 -1151 -1152 -1153 -1154
v -1155 -1156 -1157 -1158 -1159 -1160 -1161 -1162 -1163 -1164 -1165 -1166
v -1167 1168 1169 1170 1171 1172 1173 1174 1175 1176 1177 1178 1179 1180 1181
v 1182 1183 1184 1185 1186 1187 1188 1189 1190 1191 1192 1193 1194 1195 1196
v 1197 1198 1199 1200 1201 1202 1203 1204 1205 1206 1207 1208 1209 1210 1211
v 1212 -1213 -1214 -1215 -1216 -1217 -1218 -1219 -1220 -1221 -1222 -1223 -1224
v -1225 -1226 -1227 -1228 -1229 -1230 -1231 -1232 -1233 -1234 -1235 -1236
v -1237 -1238 -1239 -1240 -1241 -1242 1243 1244 1245 1246 1247 1248 1249 1250
v 1251 1252 1253 1254 1255 1256 1257 1258 1259 1260 1261 1262 1263 1264 1265
v 1266 1267 1268 1269 1270 1271 1272 1273 1274 1275 1276 1277 1278 1279 1280
v 1281 1282 1283 1284 1285 1286 -1287 -1288 -1289 -1290 -1291 -1292 -1293
v -1294 -1295 -1296 -1297 -1298 -1299 -1300 -1301 -1302 -1303 -1304 -1305
v -1306 -1307 -1308 -1309 -1310 -1311 -1312 -1313 -1314 -1315 -1316 -1317 1318
v 1319 1320 1321 1322 1323 1324 1325 1326 1327 1328 1329 1330 1331 1332 1333
v 1334 1335 1336 1337 1338 1339 1340 1341 1342 1343 1344 1345 1346 1347 1348
v 1349 1350 1351 1352 1353 1354 1355 1356 1357 1358 1359 1360 -1361 -1362
v -1363 -1364 -1365 -1366 -1367 -1368 -1369 -1370 -1371 -1372 -1373 -1374
v -1375 -1376 -1377 -1378 -1379 -1380 -1381 -1382 -1383 -1384 -1385 -1386
v -1387 -1388 -1389 -1390 -1391 -1392 -1393 -1394 -1395 -1396 -1397 -1398
v -1399 -1400 -1401 1402 1403 1404 1405 1406 1407 1408 1409 1410 1411 1412
v 1413 1414 1415 1416 1417 1418 1419 1420 1421 1422 1423 1424 1425 1426 1427
v 1428 1429 1430 1431 1432 1433 1434 -1435 -1436 -1437 -1438 -1439 -1440 -1441
v -1442 -1443 -1444 -1445 -1446 -1447 -1448 -1449 -1450 -1451 -1452 -1453
v -1454 -1455 -1456 -1457 -1458 -1459 -1460 -1461 -1462 -1463 -1464 -1465
v -1466 -1467 -1468 -1469 -1470 -1471 -1472 -1473 -1474 -1475 -1476 1477 1478
v 1479 1480 1481 1482 1483 1484 1485 1486 1487 1488 1489 1490 1491 1492 1493
v 1494 1495 1496 1497 1498 1499 1500 1501 1502 1503 1504 1505 1506 1507 1508
v -1509 -1510 -1511 -1512 -1513 -1514 -1515 -1516 -1517 -1518 -1519 -1520
v -1521 -1522 -1523 -1524 -1525 -1526 -1527 -1528 -1529 -1530 -1531 -1532
v -1533 -1534 -1535 -1536 -1537 -1538 -1539 -1540 -1541 -1542 -1543 -1544
v -1545 -1546 -1547 -1548 -1549 -1550 -1551 1552 1553 1554 1555 1556 1557 1558
v 1559 1560 1561 1562 1563 1564 1565 1566 1567 1568 1569 1570 1571 1572 1573
v 1574 1575 1576 1577 1578 1579 1580 1581 1582 -1583 -1584 -1585 -1586 -1587
v -1588 -1589 -1590 -1591 -1592 -1593 -1594 -1595 -1596 -1597 -1598 -1599
v -1600 -1601 -1602 -1603 -1604 -1605 -1606 -1607 -1608 -1609 -1610 -1611
v -1612 -1613 -1614 -1615 -1616 -1617 -1618 -1619 -1620 -1621 -1622 -1623
v -1624 -1625 -1626 1627 1628 1629 1630 1631 1632 1633 1634 1635 1636 1637
v 1638 1639 1640 1641 1642 1643 1644 1645 1646 1647 1648 1649 1650 1651 1652
v 1653 1654 1655 1656 -1657 -1658 -1659 -1660 -1661 -1662 -1663 -1664 -1665
v -1666 -1667 -1668 -1669 -1670 -1671 -1672 -1673 -1674 -1675 -1676 -1677
v -1678 -1679 -1680 -1681 -1682 -1683 -1684 -1685 -1686 -1687 -1688 -1689
v -1690 -1691 -1692 -1693 -1694 -1695 -1696 -1697 -1698 -1699 -1700 -1701
v -1702 -1703 1704 1705 1706 1707 1708 1709 1710 1711 1712 1713 1714 1715 1716
v 1717 1718 1719 1720 1721 1722 1723 1724 1725 1726 1727 1728 1729 1730 -1731
v -1732 -1733 -1734 -1735 -1736 -1737 -1738 -1739 -1740 -1741 -1742 -1743
v -1744 -1745 -1746 -1747 -1748 -1749 -1750 -1751 -1752 -1753 -1754 -1755
v -1756 -1757 -1758 -1759 -1760 -1761 -1762 -1763 -1764 -1765 -1766 -1767
v -1768 -1769 -1770 -1771 -1772 -1773 -1774 -1775 -1776 -1777 -1778 -1779
v -1780 -1781 1782 1783 1784 1785 1786 1787 1788 1789 1790 1791 1792 1793 1794
v 1795 1796 1797 1798 1799 1800 1801 1802 1803 1804 -1805 -1806 -1807 -1808
v -1809 -1810 -1811 -1812 -1813 -1814 -1815 -1816 -1817 -1818 -1819 -1820
v -1821 -1822 -1823 -1824 -1825 -1826 -1827 -1828 -1829 -1830 -1831 -1832
v -1833 -1834 -1835 -1836 -1837 -1838 -1839 -1840 -1841 -1842 -1843 -1844
v -1845 -1846 -1847 -1848 -1849 -1850 -1851 -1852 -1853 -1854 -1855 -1856
v -1857 -1858 -1859 1860 1861 1862 1863 1864 1865 1866 1867 1868 1869 1870
v 1871 1872 1873 1874 1875 1876 1877 1878 -1879 -1880 -1881 -1882 -1883 -1884
v -1885 -1886 -1887 -1888 -1889 -1890 -1891 -1892 -1893 -1894 -1895 -1896
v -1897 -1898 -1899 -1900 -1901 -1902 -1903 -1904 -1905 -1906 -1907 -1908
v -1909 -1910 -1911 -1912 -1913 -1914 -1915 -1916 -1917 -1918 -1919 -1920
v -1921 -1922 -1923 -1924 -1925 -1926 -1927 -1928 -1929 -1930 -1931 -1932
v -1933 -1934 -1935 1936 1937 1938 1939 1940 1941 1942 1943 1944 1945 1946
v 1947 1948 1949 1950 1951 1952 -1953 -1954 -1955 -1956 -1957 -1958 -1959
v -1960 -1961 -1962 -1963 -1964 -1965 -1966 -1967 -1968 -1969 -1970 -1971
v -1972 -1973 -1974 -1975 -1976 -1977 -1978 -1979 -1980 -1981 -1982 -1983
v -1984 -1985 -1986 -1987 -1988 -1989 -1990 -1991 -1992 -1993 -1994 -1995
v -1996 -1997 -1998 -1999 -2000 -2001 -2002 -2003 -2004 -2005 -2006 -2007
v -2008 -2009 -2010 2011 2012 2013 2014 2015 2016 2017 2018 2019 2020 2021
v 2022 2023 2024 2025 2026 -2027 -2028 -2029 -2030 -2031 -2032 -2033 -2034
v -2035 -2036 -2037 -2038 -2039 -2040 -2041 -2042 -2043 -2044 -2045 -2046
v -2047 -2048 -2049 -2050 -2051 -2052 -2053 -2054 -2055 -2056 -2057 -2058
v -2059 -2060 -2061 -2062 -2063 -2064 -2065 -2066 -2067 -2068 -2069 -2070
v -2071 -2072 -2073 -2074 -2075 -2076 -2077 -2078 -2079 -2080 -2081 -2082
v -2083 -2084 -2085 2086 2087 2088 2089 2090 2091 2092 2093 2094 2095 2096
v 2097 2098 2099 2100 -2101 -2102 -2103 -2104 -2105 -2106 -2107 -2108 -2109
v -2110 -2111 -2112 -2113 -2114 -2115 -2116 -2117 -2118 -2119 -2120 -2121
v -2122 -2123 -2124 -2125 -2126 -2127 -2128 -2129 -2130 -2131 -2132 -2133
v -2134 -2135 -2136 -2137 -2138 -2139 -2140 -2141 -2142 -2143 -2144 -2145
v -2146 -2147 -2148 -2149 -2150 -2151 -2152 -2153 -2154 -2155 -2156 -2157
v -2158 -2159 -2160 -2161 -2162 2163 2164 2165 2166 2167 2168 2169 2170 2171
v 2172 2173 2174 -2175 -2176 -2177 -2178 -2179 -2180 -2181 -2182 -2183 -2184
v -2185 -2186 -2187 -2188 -2189 -2190 -2191 -2192 -2193 -2194 -2195 -2196
v -2197 -2198 -2199 -2200 -2201 -2202 -2203 -2204 -2205 -2206 -2207 -2208
v -2209 -2210 -2211 -2212 -2213 -2214 -2215 -2216 -2217 -2218 -2219 -2220
v -2221 -2222 -2223 -2224 -2225 -2226 -2227 -2228 -2229 -2230 -2231 -2232
v -2233 -2234 -2235 -2236 -2237 -2238 2239 2240 2241 2242 2243 2244 2245 2246
v 2247 2248 -2249 -2250 -2251 -2252 -2253 -2254 -2255 -2256 -2257 -2258 -2259
v -2260 -2261 -2262 -2263 -2264 -2265 -2266 -2267 -2268 -2269 -2270 -2271
v -2272 -2273 -2274 -2275 -2276 -2277 -2278 -2279 -2280 -2281 -2282 -2283
v -2284 -2285 -2286 -2287 -2288 -2289 -2290 -2291 -2292 -2293 -2294 -2295
v -2296 -2297 -2298 -2299 -2300 -2301 -2302 -2303 -2304 -2305 -2306 -2307
v -2308 -2309 -2310 -2311 -2312 -2313 2314 2315 2316 2317 2318 2319 2320 2321
v 2322 -2323 -2324 -2325 -2326 -2327 -2328 -2329 -2330 -2331 -2332 -2333 -2334
v -2335 -2336 -2337 -2338 -2339 -2340 -2341 -2342 -2343 -2344 -2345 -2346
v -2347 -2348 -2349 -2350 -2351 -2352 -2353 -2354 -2355 -2356 -2357 -2358
v -2359 -2360 -2361 -2362 -2363 -2364 -2365 -2366 -2367 -2368 -2369 -2370
v -2371 -2372 -2373 -2374 -2375 -2376 -2377 -2378 -2379 -2380 -2381 -2382
v -2383 -2384 -2385 -2386 -2387 -2388 -2389 2390 2391 2392 2393 2394 2395 2396
v -2397 -2398 -2399 -2400 -2401 -2402 -2403 -2404 -2405 -2406 -2407 -2408
v -2409 -2410 -2411 -2412 -2413 -2414 -2415 -2416 -2417 -2418 -2419 -2420
v -2421 -2422 -2423 -2424 -2425 -2426 -2427 -2428 -2429 -2430 -2431 -2432
v -2433 -2434 -2435 -2436 -2437 -2438 -2439 -2440 -2441 -2442 -2443 -2444
v -2445 -2446 -2447 -2448 -2449 -2450 -2451 -2452 -2453 -2454 -2455 -2456
v -2457 -2458 -2459 -2460 -2461 -2462 -2463 -2464 -2465 -2466 -2467 2468 2469
v 2470 -2471 -2472 -2473 -2474 -2475 -2476 -2477 -2478 -2479 -2480 -2481 -2482
v -2483 -2484 -2485 -2486 -2487 -2488 -2489 -2490 -2491 -2492 -2493 -2494
v -2495 -2496 -2497 -2498 -2499 -2500 -2501 -2502 -2503 -2504 -2505 -2506
v -2507 -2508 -2509 -2510 -2511 -2512 -2513 -2514 -2515 -2516 -2517 -2518
v -2519 -2520 -2521 -2522 -2523 -2524 -2525 -2526 -2527 -2528 -2529 -2530
v -2531 -2532 -2533 -2534 -2535 -2536 -2537 -2538 -2539 -2540 -2541 -2542 2543
v 2544 -2545 -2546 -2547 -2548 -2549 -2550 -2551 -2552 -2553 -2554 -2555 -2556
v -2557 -2558 -2559 -2560 -2561 -2562 -2563 -2564 -2565 -2566 -2567 -2568
v -2569 -2570 -2571 -2572 -2573 -2574 -2575 -2576 -2577 -2578 -2579 -2580
v -2581 -2582 -2583 -2584 -2585 -2586 -2587 -2588 -2589 -2590 -2591 -2592
v -2593 -2594 -2595 -2596 -2597 -2598 -2599 -2600 -2601 -2602 -2603 -2604
v -2605 -2606 -2607 -2608 -2609 -2610 -2611 -2612 -2613 -2614 -2615 -2616
v -2617 2618 -2619 -2620 -2621 -2622 -2623 -2624 -2625 -2626 -2627 -2628 -2629
v -2630 -2631 -2632 -2633 -2634 -2635 -2636 -2637 -2638 -2639 -2640 -2641
v -2642 -2643 -2644 -2645 -2646 -2647 -2648 -2649 -2650 -2651 -2652 -2653
v -2654 -2655 -2656 -2657 -2658 -2659 -2660 -2661 -2662 -2663 -2664 -2665
v -2666 -2667 -2668 -2669 -2670 -2671 -2672 -2673 -2674 -2675 -2676 -2677
v -2678 -2679 -2680 -2681 -2682 -2683 -2684 -2685 -2686 -2687 -2688 -2689
v -2690 -2691 -2692 0
c 
c --- [ run-time profiling ] -------------------------------------------------
c 
c process time taken by individual solving procedures
c (percentage relative to process time for solving)
c 
c        64.73   98.10% search
c        39.99   60.60% stable
c        23.45   35.54% unstable
c         1.29    1.95% walk
c         1.26    1.90% simplify
c         0.46    0.69% subsume
c         0.33    0.50% vivify
c         0.18    0.28% probe
c         0.07    0.11% elim
c         0.07    0.11% ternary
c         0.00    0.01% parse
c         0.00    0.00% lucky
c   =================================
c        65.98   99.99% solve
c 
c last line shows process time for solving
c (percentage relative to total process time)
c 
c --- [ statistics ] ---------------------------------------------------------
c 
c chronological:            166513        19.34 %  of conflicts
c conflicts:                861083     13050.02    per second
c decisions:               1443906     21882.91    per second
c eliminated:                 2049        76.11 %  of all variables
c fixed:                        81         3.01 %  of all variables
c learned:                  845811        98.23 %  per conflict
c learned_lits:           34945712       100.00 %  learned literals
c minimized:                     0         0.00 %  learned literals
c shrunken:               10367062        29.67 %  learned literals
c minishrunken:            3644333        10.43 %  learned literals
c propagations:           69617012         1.06 M  per second
c reduced:                  684426        79.48 %  per conflict
c rephased:                     41     21002.02    interval
c restarts:                  25669        33.55    interval
c stabilizing:                   5        60.40 %  of conflicts
c subsumed:                 106505         6.17 %  of all clauses
c strengthened:               6759         0.39 %  of all clauses
c ternary:                       1         0.00 %  of resolved
c vivified:                    108         0.01 %  of all clauses
c walked:                       13     66237.15    interval
c weakened:                   8767         2.89    average size
c 
c seconds are measured in process time for solving
c 
c --- [ resources ] ----------------------------------------------------------
c 
c total process time since initialization:        65.99    seconds
c total real time since initialization:           66.02    seconds
c maximum resident set size of process:           22.81    MB
c 
c --- [ shutting down ] ------------------------------------------------------
c 
c exit 10
